solution status: optimal solution found
objective value:                     160826.193908396
d11(0,0)                                            1 	(obj:0)
d11(1,1)                                            1 	(obj:0)
d11(2,3)                                            1 	(obj:0)
d11(2,4)                                            1 	(obj:0)
d11(2,5)                                            1 	(obj:0)
d11(3,7)                                            1 	(obj:0)
d11(3,8)                                            1 	(obj:0)
d11(3,9)                                            1 	(obj:0)
d11(3,11)                                           1 	(obj:0)
d11(3,12)                                           1 	(obj:0)
d11(3,13)                                           1 	(obj:0)
d11(3,14)                                           1 	(obj:0)
d11(4,15)                                           1 	(obj:0)
d11(4,17)                                           1 	(obj:0)
d11(4,19)                                           1 	(obj:0)
d11(4,20)                                           1 	(obj:0)
d11(4,21)                                           1 	(obj:0)
d11(4,22)                                           1 	(obj:0)
d11(4,23)                                           1 	(obj:0)
d11(4,24)                                           1 	(obj:0)
d11(4,25)                                           1 	(obj:0)
d11(4,27)                                           1 	(obj:0)
d11(4,28)                                           1 	(obj:0)
d11(4,29)                                           1 	(obj:0)
d11(4,30)                                           1 	(obj:0)
d12(1,2)                                            1 	(obj:0)
d21(3,7)                                            1 	(obj:0)
d21(4,15)                                           1 	(obj:0)
d21(4,16)                                           1 	(obj:0)
d21(4,17)                                           1 	(obj:0)
d21(4,19)                                           1 	(obj:0)
d21(4,23)                                           1 	(obj:0)
d21(4,24)                                           1 	(obj:0)
d21(4,25)                                           1 	(obj:0)
d21(4,27)                                           1 	(obj:0)
STE(1,1)                              12147.749648864 	(obj:0)
STE(0,0)                                        14175 	(obj:0)
STE(1,2)                             13562.3124213604 	(obj:0)
STE(2,3)                             9355.49974997518 	(obj:0)
STE(2,4)                             11013.7496488639 	(obj:0)
STE(2,5)                             10770.0625224716 	(obj:0)
STE(2,6)                             12428.3124213604 	(obj:0)
STE(3,7)                             6563.24985108634 	(obj:0)
STE(3,8)                                   8221.49975 	(obj:0)
STE(3,9)                              8221.4997499751 	(obj:0)
STE(3,10)                            9879.74964886394 	(obj:0)
STE(3,11)                            7977.81262358274 	(obj:0)
STE(3,12)                            9636.06252247158 	(obj:0)
STE(3,13)                             9636.0625224716 	(obj:0)
STE(3,14)                            11294.3124213604 	(obj:0)
STE(4,15)                            3770.99995219749 	(obj:0)
STE(4,16)                            5429.24985108634 	(obj:0)
STE(4,17)                            5429.24985111115 	(obj:0)
STE(4,18)                                  7087.49975 	(obj:0)
STE(4,19)                            5429.24985108625 	(obj:0)
STE(4,20)                             7087.4997499751 	(obj:0)
STE(4,21)                             7087.4997499751 	(obj:0)
STE(4,22)                            8745.74964886394 	(obj:0)
STE(4,23)                            5185.56272469389 	(obj:0)
STE(4,24)                            6843.81262358271 	(obj:0)
STE(4,25)                            6843.81262358274 	(obj:0)
STE(4,26)                            8502.06252247158 	(obj:0)
STE(4,27)                            6843.81262358275 	(obj:0)
STE(4,28)                             8502.0625224716 	(obj:0)
STE(4,29)                             8502.0625224716 	(obj:0)
STE(4,30)                            10160.3124213604 	(obj:0)
y1(3,11)                             1492.42490899996 	(obj:0)
y1(3,13)                             1492.42490899996 	(obj:0)
y1(4,15)                             1492.42490899996 	(obj:0)
y1(4,17)                             1492.42490899996 	(obj:0)
y1(4,19)                             1492.42490899996 	(obj:0)
y1(4,21)                             1492.42490899996 	(obj:0)
y1(4,23)                             1492.42490899996 	(obj:0)
y1(4,25)                             1492.42490899996 	(obj:0)
y1(4,27)                             1492.42490899996 	(obj:0)
y1(4,29)                             1492.42490899996 	(obj:0)
AVE(1)                               3265.91696791192 	(obj:0)
WB(2)                                3332.74178563731 	(obj:0)
AVE(2)                               3332.74178563731 	(obj:0)
WB(3)                                3444.11697932125 	(obj:0)
AVE(3)                               3444.11697932125 	(obj:0)
AVE(4)                               3399.56511093778 	(obj:0)
WG(1)                                3265.91696791192 	(obj:10)
WG(4)                                3399.56511093778 	(obj:10)
BG(1)                                227.824925988524 	(obj:10)
BG(2)                                4196.29249897971 	(obj:10)
BG(3)                                4196.29249897959 	(obj:10)
BG(4)                                796.727388041812 	(obj:10)
y1(1,1)                              803.925316022397 	(obj:0)
y1(2,3)                              1492.42490899994 	(obj:0)
y1(2,5)                              1492.42490899998 	(obj:0)
y1(3,7)                              1492.42490899996 	(obj:0)
y1(3,8)                          -2.23342794924974e-008 	(obj:0)
y1(3,9)                              1492.42490899996 	(obj:0)
y2(1,2)                              548.749917221521 	(obj:0)
